NAME:  test1
TYPE: AGTSP
COMMENT: gtsp tours
DIMENSION: 85 
GTSP_SETS: 13
EDGE_WEIGHT_TYPE: EXPLICIT
EDGE_WEIGHT_FORMAT: FULL_MATRIX 
EDGE_WEIGHT_SECTION
999999	0	999999	999999	999999	999999	999999	29355	29355	29355	29355	29355	29355	29347	29344	29344	29344	29344	29344	29336	999999	29319	29319	29319	29311	999999	999999	999999	29327	29327	29327	29319	999999	999999	999999	29324	29324	29324
999999	999999	0	999999	999999	999999	999999	29355	29355	29355	999999	999999	999999	999999	29344	29344	29344	29344	29344	29344	29336	29319	29319	29319	29319	29311	999999	999999	29327	29327	29327	29327	29319	999999	999999	29324	29324	29324
999999	999999	999999	0	999999	999999	999999	29355	29355	29355	29355	999999	999999	999999	29344	29344	29344	29344	999999	999999	999999	29319	29319	29319	29319	29319	29311	999999	29327	29327	29327	29327	29327	29319	999999	29324	29324	29324
999999	999999	999999	999999	0	999999	999999	29355	29355	29355	29355	29355	999999	999999	29344	29344	29344	29344	29344	999999	999999	29319	29319	29319	29319	29319	29319	29311	29327	29327	29327	29327	29327	29327	29319	29324	29324	29324
999999	999999	999999	999999	999999	0	999999	29355	29355	29355	29355	29355	29355	999999	29344	29344	29344	29344	29344	29344	999999	29319	29319	29319	29319	29319	29319	999999	29327	29327	29327	29327	29327	29327	999999	29324	29324	29324
999999	999999	999999	999999	999999	999999	0	29355	29355	29355	29355	29355	29355	29355	29344	29344	29344	29344	29344	29344	29344	29319	29319	29319	29319	29319	29319	29319	29327	29327	29327	29327	29327	29327	29327	29324	29324	29324
0	999999	999999	999999	999999	999999	999999	29355	29355	29355	29355	29355	29347	999999	29344	29344	29344	29344	29336	999999	999999	29319	29319	29311	999999	999999	999999	999999	29327	29327	29319	999999	999999	999999	999999	29324	29324	29316
29355	29355	29355	29355	29355	29355	29347	999999	0	999999	999999	999999	999999	999999	29319	29319	29319	29311	999999	999999	999999	29356	29356	29356	29356	29356	29356	29348	29336	29336	29336	29336	29328	999999	999999	29348	29348	29348
29355	29355	29355	999999	999999	999999	999999	999999	999999	0	999999	999999	999999	999999	29319	29319	29319	29319	29311	999999	999999	29356	29356	29356	999999	999999	999999	999999	29336	29336	29336	29336	29336	29328	999999	29348	29348	29348
29355	29355	29355	29355	999999	999999	999999	999999	999999	999999	0	999999	999999	999999	29319	29319	29319	29319	29319	29311	999999	29356	29356	29356	29356	999999	999999	999999	29336	29336	29336	29336	29336	29336	29328	29348	29348	29348
29355	29355	29355	29355	29355	999999	999999	999999	999999	999999	999999	0	999999	999999	29319	29319	29319	29319	29319	29319	29311	29356	29356	29356	29356	29356	999999	999999	29336	29336	29336	29336	29336	999999	999999	29348	29348	29348
29355	29355	29355	29355	29355	29355	999999	999999	999999	999999	999999	999999	0	999999	29319	29319	29319	29319	29319	29319	999999	29356	29356	29356	29356	29356	29356	999999	29336	29336	29336	29336	29336	29336	999999	29348	29348	29348
29355	29355	29355	29355	29355	29355	29355	999999	999999	999999	999999	999999	999999	0	29319	29319	29319	29319	29319	29319	29319	29356	29356	29356	29356	29356	29356	29356	29336	29336	29336	29336	29336	29336	29336	29348	29348	29348
29355	29355	29355	29355	29355	29347	999999	0	999999	999999	999999	999999	999999	999999	29319	29319	29311	999999	999999	999999	999999	29356	29356	29356	29356	29356	29348	999999	29336	29336	29336	29328	999999	999999	999999	29348	29348	29348
29344	29344	29344	29344	29344	29336	999999	29319	29319	29319	29311	999999	999999	999999	999999	0	999999	999999	999999	999999	999999	29343	29343	29343	29343	29343	29335	999999	29328	29328	29328	29320	999999	999999	999999	29335	29335	29335
29344	29344	29344	29344	29344	29344	29336	29319	29319	29319	29319	29311	999999	999999	999999	999999	0	999999	999999	999999	999999	29343	29343	29343	29343	29343	29343	29335	29328	29328	29328	29328	29320	999999	999999	29335	29335	29335
29344	29344	29344	29344	999999	999999	999999	29319	29319	29319	29319	29319	29311	999999	999999	999999	999999	0	999999	999999	999999	29343	29343	29343	29343	999999	999999	999999	29328	29328	29328	29328	29328	29320	999999	29335	29335	29335
29344	29344	29344	29344	29344	999999	999999	29319	29319	29319	29319	29319	29319	29311	999999	999999	999999	999999	0	999999	999999	29343	29343	29343	29343	29343	999999	999999	29328	29328	29328	29328	29328	29328	29320	29335	29335	29335
29344	29344	29344	29344	29344	29344	999999	29319	29319	29319	29319	29319	29319	999999	999999	999999	999999	999999	999999	0	999999	29343	29343	29343	29343	29343	29343	999999	29328	29328	29328	29328	29328	29328	999999	29335	29335	29335
29344	29344	29344	29344	29344	29344	29344	29319	29319	29319	29319	29319	29319	29319	999999	999999	999999	999999	999999	999999	0	29343	29343	29343	29343	29343	29343	29343	29328	29328	29328	29328	29328	29328	29328	29335	29335	29335
29344	29344	29344	29344	29336	999999	999999	29319	29319	29311	999999	999999	999999	999999	0	999999	999999	999999	999999	999999	999999	29343	29343	29343	29343	29335	999999	999999	29328	29328	29320	999999	999999	999999	999999	29335	29335	29335
29319	29319	29319	29311	999999	999999	999999	29356	29356	29356	29356	29356	29356	29348	29343	29343	29343	29343	29343	29335	999999	999999	0	999999	999999	999999	999999	999999	29334	29334	29334	29334	29326	999999	999999	29315	29315	29307
29319	29319	29319	29319	29311	999999	999999	29356	29356	29356	999999	999999	999999	999999	29343	29343	29343	29343	29343	29343	29335	999999	999999	0	999999	999999	999999	999999	29334	29334	29334	29334	29334	29326	999999	29315	29315	29315
29319	29319	29319	29319	29319	29311	999999	29356	29356	29356	29356	999999	999999	999999	29343	29343	29343	29343	999999	999999	999999	999999	999999	999999	0	999999	999999	999999	29334	29334	29334	29334	29334	29334	29326	29315	29315	29315
29319	29319	29319	29319	29319	29319	29311	29356	29356	29356	29356	29356	999999	999999	29343	29343	29343	29343	29343	999999	999999	999999	999999	999999	999999	0	999999	999999	29334	29334	29334	29334	29334	999999	999999	29315	29315	29315
29319	29319	29319	29319	29319	29319	999999	29356	29356	29356	29356	29356	29356	999999	29343	29343	29343	29343	29343	29343	999999	999999	999999	999999	999999	999999	0	999999	29334	29334	29334	29334	29334	29334	999999	29315	29315	29315
29319	29319	29319	29319	29319	29319	29319	29356	29356	29356	29356	29356	29356	29356	29343	29343	29343	29343	29343	29343	29343	999999	999999	999999	999999	999999	999999	0	29334	29334	29334	29334	29334	29334	29334	29315	29315	29315
29319	29319	29311	999999	999999	999999	999999	29356	29356	29356	29356	29356	29348	999999	29343	29343	29343	29343	29335	999999	999999	0	999999	999999	999999	999999	999999	999999	29334	29334	29334	29326	999999	999999	999999	29315	29307	999999
29327	29327	29327	29319	999999	999999	999999	29336	29336	29336	29336	29328	999999	999999	29328	29328	29328	29320	999999	999999	999999	29334	29334	29334	29334	29326	999999	999999	999999	0	999999	999999	999999	999999	999999	29332	29332	29332
29327	29327	29327	29327	29319	999999	999999	29336	29336	29336	29336	29336	29328	999999	29328	29328	29328	29328	29320	999999	999999	29334	29334	29334	29334	29334	29326	999999	999999	999999	0	999999	999999	999999	999999	29332	29332	29332
29327	29327	29327	29327	29327	29319	999999	29336	29336	29336	29336	29336	29336	29328	29328	29328	29328	29328	29328	29320	999999	29334	29334	29334	29334	29334	29334	29326	999999	999999	999999	0	999999	999999	999999	29332	29332	29332
29327	29327	29327	29327	29327	29327	29319	29336	29336	29336	29336	29336	999999	999999	29328	29328	29328	29328	29328	29328	29320	29334	29334	29334	29334	29334	999999	999999	999999	999999	999999	999999	0	999999	999999	29332	29332	29332
29327	29327	29327	29327	29327	29327	999999	29336	29336	29336	29336	29336	29336	999999	29328	29328	29328	29328	29328	29328	999999	29334	29334	29334	29334	29334	29334	999999	999999	999999	999999	999999	999999	0	999999	29332	29332	29332
29327	29327	29327	29327	29327	29327	29327	29336	29336	29336	29336	29336	29336	29336	29328	29328	29328	29328	29328	29328	29328	29334	29334	29334	29334	29334	29334	29334	999999	999999	999999	999999	999999	999999	0	29332	29332	29332
29327	29327	29319	999999	999999	999999	999999	29336	29336	29336	29328	999999	999999	999999	29328	29328	29320	999999	999999	999999	999999	29334	29334	29334	29326	999999	999999	999999	0	999999	999999	999999	999999	999999	999999	29332	29332	29332
29324	29324	29324	29316	999999	999999	999999	29348	29348	29348	29348	29348	29340	999999	29335	29335	29335	29335	29327	999999	999999	29315	29315	29307	999999	999999	999999	999999	29332	29332	29332	29332	29324	999999	999999	999999	0	999999
29324	29324	29324	29324	29316	999999	999999	29348	29348	29348	29348	29348	29348	29340	29335	29335	29335	29335	29335	29327	999999	29315	29315	29315	29307	999999	999999	999999	29332	29332	29332	29332	29332	29324	999999	999999	999999	0
29324	29324	29324	29324	29324	29316	999999	29348	29348	29348	29348	999999	999999	999999	29335	29335	29335	29335	29335	29335	29327	29315	29315	29315	29315	29307	999999	999999	29332	29332	29332	29332	29332	29332	29324	999999	999999	999999
GTSP_SET_SECTION:
1 1 2 3 4 5 6 7 -1
2 8 9 10 11 12 13 14 -1
3 15 16 17 18 19 20 21 -1
4 22 23 24 25 26 27 28 -1
5 29 30 31 32 33 34 35 -1
6 36 37 38 39 40 41 42 -1
7 43 44 45 46 47 48 49 -1
8 50 51 52 53 54 55 56 -1
9 57 58 59 60 61 62 63 -1
10 64 65 66 67 68 69 70 -1
11 71 72 73 74 75 76 77 -1
12 78 79 80 81 82 83 84 -1
13 85 -1
EOF